# Objective value = 36407
d_1_2_9 5
d_1_10_7 1
d_2_3_9 1
d_6_7_10 15
d_7_8_10 5
d_8_9_10 6
d_10_11_7 4
d_10_12_7 1
d_11_12_7 1
d_12_13_8 7
d_13_14_8 51
d_13_15_8 10
d_14_15_8 9
d_16_17_5 38
d_16_18_5 15
d_16_19_5 5
d_16_20_5 2
d_16_23_5 3
d_16_24_5 3
d_16_26_5 1
d_16_27_5 1
d_16_31_5 1
d_16_32_5 1
d_16_34_5 1
d_16_37_5 1
d_16_41_5 1
d_16_43_5 1
d_16_45_5 1
d_16_51_5 3
d_17_18_5 20
d_18_19_5 222
d_18_20_5 9
d_18_21_5 1
d_18_23_5 1
d_18_24_5 3
d_18_31_5 1
d_18_42_5 1
d_18_50_5 1
d_19_20_5 105
d_19_23_5 2
d_19_43_5 1
d_20_21_5 97
d_20_23_5 1
d_20_24_5 1
d_20_30_5 1
d_21_22_5 31
d_21_23_5 4
d_21_24_5 5
d_21_31_5 1
d_21_45_5 1
d_22_23_5 49
d_22_24_5 8
d_22_41_5 1
d_22_42_5 1
d_23_24_5 271
d_23_31_5 1
d_23_32_5 1
d_24_25_5 392
d_24_26_5 29
d_24_27_5 14
d_24_28_5 1
d_24_29_5 7
d_24_30_5 2
d_24_31_5 9
d_24_32_5 1
d_24_37_5 1
d_24_38_5 2
d_24_41_5 3
d_24_42_5 3
d_24_43_5 2
d_24_45_5 4
d_24_50_5 1
d_25_26_5 7
d_25_29_5 1
d_26_27_5 31
d_26_31_5 1
d_26_34_5 2
d_27_28_5 42
d_27_29_5 1
d_27_31_5 1
d_27_41_5 1
d_28_29_5 24
d_28_32_5 1
d_28_33_5 1
d_28_42_5 1
d_28_43_5 1
d_29_30_5 115
d_29_31_5 2
d_29_32_5 1
d_29_45_5 1
d_30_31_5 56
d_30_32_5 2
d_31_32_5 210
d_31_34_5 1
d_31_37_5 1
d_31_39_5 2
d_31_42_5 1
d_31_43_5 1
d_31_44_5 1
d_31_45_5 1
d_31_46_5 1
d_31_48_5 1
d_31_51_5 1
d_32_33_5 84
d_32_34_5 1
d_33_34_5 39
d_34_35_5 94
d_34_37_5 4
d_34_41_5 1
d_34_43_5 1
d_34_45_5 1
d_34_49_5 1
d_35_36_5 13
d_35_37_5 10
d_35_38_5 1
d_35_48_5 1
d_36_37_5 5
d_36_45_5 1
d_36_49_5 1
d_37_38_5 158
d_37_39_5 12
d_37_41_5 4
d_37_42_5 1
d_37_43_5 9
d_37_44_5 1
d_37_45_5 2
d_37_46_5 1
d_37_48_5 1
d_37_51_5 1
d_38_39_5 38
d_38_43_5 1
d_38_45_5 1
d_38_46_5 1
d_39_40_5 13
d_39_41_5 20
d_39_42_5 3
d_39_43_5 14
d_39_44_5 2
d_39_45_5 7
d_39_46_5 2
d_39_49_5 2
d_40_41_5 4
d_41_42_5 88
d_41_42_13 0
d_41_43_5 32
d_41_43_13 0
d_41_44_5 1
d_41_45_5 1
d_41_46_5 3
d_41_47_5 1
d_41_49_5 1
d_42_43_5 33
d_42_43_13 0
d_43_44_3 564
d_43_44_5 0
d_43_45_3 47
d_43_45_5 0
d_43_46_3 6
d_43_46_5 0
d_43_47_3 1
d_43_47_5 0
d_43_48_3 1
d_43_48_5 0
d_43_49_3 1
d_43_49_5 0
d_43_53_3 1
d_43_53_5 0
d_43_54_5 1
d_44_45_3 90
d_44_45_5 0
d_44_46_3 3
d_44_46_5 0
d_44_48_3 3
d_44_48_5 0
d_44_53_3 1
d_44_53_5 0
d_45_46_3 0
d_45_46_5 510
d_45_47_3 0
d_45_47_5 1
d_45_48_3 0
d_45_48_5 1
d_46_47_3 0
d_46_47_5 273
d_46_48_3 0
d_46_48_5 20
d_46_49_3 0
d_46_49_5 10
d_46_50_3 2
d_46_50_5 0
d_46_51_3 0
d_46_51_5 3
d_46_53_3 0
d_46_53_5 2
d_47_48_3 20
d_47_48_5 0
d_48_49_3 183
d_48_49_5 0
d_48_49_11 0
d_48_50_3 0
d_48_50_5 3
d_48_50_11 0
d_48_53_3 2
d_48_53_5 0
d_48_57_1 3
d_48_58_1 2
d_48_155_1 1
d_48_156_1 1
d_48_157_1 1
d_49_50_3 230
d_49_50_5 0
d_49_50_11 0
d_49_51_3 0
d_49_51_5 12
d_49_53_3 0
d_49_53_5 3
d_49_57_3 1
d_49_65_3 1
d_49_157_3 2
d_50_51_3 0
d_50_51_5 259
d_50_57_3 1
d_50_59_3 1
d_50_60_3 1
d_50_65_3 1
d_51_52_3 0
d_51_52_5 411
d_51_53_3 0
d_51_53_5 46
d_51_54_5 4
d_51_55_5 2
d_51_57_3 10
d_51_59_3 5
d_51_60_3 2
d_51_61_3 3
d_51_64_3 2
d_51_65_3 4
d_51_155_3 7
d_51_156_3 5
d_51_157_3 11
d_51_158_3 1
d_52_53_3 0
d_52_53_5 11
d_53_54_5 81
d_53_55_5 4
d_53_57_3 7
d_53_60_3 3
d_53_61_3 1
d_53_65_3 1
d_53_155_3 132
d_53_156_3 2
d_53_157_3 4
d_54_55_5 32
d_54_57_5 3
d_55_56_5 6
d_55_57_5 50
d_55_58_5 5
d_56_57_5 5
d_57_58_1 508
d_57_58_5 0
d_57_59_3 554
d_57_60_3 47
d_57_61_3 6
d_57_62_3 1
d_57_64_3 6
d_57_65_3 4
d_57_66_3 1
d_57_158_3 3
d_57_160_3 1
d_57_237_3 1
d_58_59_1 0
d_58_59_5 155
d_58_60_1 2
d_58_60_5 0
d_58_65_1 1
d_58_65_5 0
d_59_60_1 0
d_59_60_3 548
d_59_60_5 0
d_59_61_1 0
d_59_61_3 4
d_59_61_5 0
d_59_62_1 0
d_59_62_3 1
d_59_62_5 0
d_59_159_1 0
d_59_159_3 1
d_59_165_1 1
d_60_61_1 0
d_60_61_3 784
d_60_61_5 0
d_60_62_1 0
d_60_62_3 7
d_60_62_5 0
d_60_63_1 0
d_60_63_3 2
d_60_63_5 0
d_60_64_1 0
d_60_64_3 6
d_60_64_5 0
d_60_65_1 0
d_60_65_3 4
d_60_65_5 0
d_60_67_5 1
d_60_158_1 0
d_60_158_3 2
d_60_159_1 0
d_60_159_3 1
d_60_160_1 0
d_60_160_3 1
d_60_161_1 0
d_60_161_3 1
d_61_62_1 0
d_61_62_3 340
d_61_62_5 0
d_61_63_1 0
d_61_63_3 0
d_61_63_5 3
d_61_64_1 0
d_61_64_3 0
d_61_64_5 5
d_61_65_1 0
d_61_65_3 4
d_61_65_5 0
d_61_67_5 4
d_61_158_1 2
d_61_158_3 0
d_61_159_1 0
d_61_159_3 2
d_61_160_1 0
d_61_160_3 3
d_61_164_1 2
d_62_63_1 0
d_62_63_3 203
d_62_63_5 0
d_62_64_1 0
d_62_64_3 0
d_62_64_5 18
d_62_65_1 0
d_62_65_3 4
d_62_65_5 0
d_62_67_5 1
d_62_158_1 0
d_62_158_3 1
d_62_159_1 0
d_62_159_3 1
d_62_165_1 1
d_63_64_1 0
d_63_64_3 121
d_63_64_5 0
d_63_65_1 0
d_63_65_3 0
d_63_65_5 2
d_63_67_5 1
d_63_160_1 0
d_63_160_3 2
d_63_163_1 3
d_63_164_1 1
d_63_237_3 1
d_64_65_1 0
d_64_65_3 390
d_64_65_5 0
d_64_66_1 5
d_64_66_3 0
d_64_66_5 0
d_64_67_5 4
d_64_158_1 0
d_64_158_3 3
d_64_159_1 0
d_64_159_3 2
d_64_160_1 0
d_64_160_3 1
d_64_237_3 1
d_65_66_1 525
d_65_66_3 0
d_65_66_5 0
d_65_67_5 142
d_65_68_5 1
d_65_158_1 0
d_65_158_3 76
d_65_159_1 0
d_65_159_3 22
d_65_160_1 0
d_65_160_3 13
d_65_161_1 0
d_65_161_3 1
d_65_163_1 2
d_65_165_1 1
d_65_166_1 1
d_65_167_1 1
d_65_169_1 1
d_65_237_3 2
d_66_67_5 105
d_66_158_1 88
d_66_158_3 0
d_66_159_1 0
d_66_159_3 2
d_66_237_3 1
d_67_68_5 5
d_67_70_5 2
d_67_73_4 979
d_67_74_4 23
d_67_269_4 3
d_67_270_4 4
d_67_271_4 1
d_67_276_4 2
d_70_71_6 10
d_71_72_6 120
d_71_73_6 212
d_71_74_6 27
d_71_76_6 3
d_71_77_6 17
d_71_78_6 5
d_71_79_6 7
d_71_80_6 1
d_71_82_6 1
d_71_86_6 3
d_72_73_6 8
d_73_74_4 643
d_73_74_6 0
d_73_77_6 4
d_73_82_6 1
d_73_269_4 3
d_73_270_4 3
d_73_271_4 1
d_74_75_6 7
d_74_76_6 22
d_74_77_6 35
d_74_78_6 7
d_74_79_6 10
d_74_80_6 1
d_74_82_6 1
d_74_83_6 1
d_74_86_6 1
d_74_88_6 1
d_74_268_4 82
d_74_269_4 51
d_74_270_4 47
d_74_271_4 4
d_74_273_4 5
d_74_274_4 2
d_74_275_4 4
d_74_276_4 3
d_75_76_6 4
d_75_78_6 1
d_76_77_6 179
d_76_78_6 3
d_76_79_6 4
d_77_78_2 954
d_77_78_6 0
d_77_79_2 42
d_77_79_6 0
d_77_81_2 1
d_77_81_6 0
d_77_198_2 1
d_78_79_2 0
d_78_79_4 329
d_78_79_6 0
d_78_192_2 0
d_78_192_4 1
d_79_80_2 0
d_79_80_4 431
d_79_80_6 0
d_79_81_2 0
d_79_81_4 71
d_79_81_6 0
d_79_82_6 13
d_79_84_6 3
d_79_86_6 11
d_79_87_6 2
d_79_89_2 0
d_79_89_4 1
d_79_90_4 3
d_79_91_4 1
d_79_194_2 1
d_79_195_2 1
d_79_196_2 1
d_79_197_2 2
d_79_199_2 2
d_79_278_4 1
d_80_81_2 0
d_80_81_4 14
d_80_81_6 0
d_80_82_6 1
d_81_82_6 174
d_81_83_6 5
d_81_86_6 5
d_81_87_6 2
d_81_91_4 4
d_81_92_4 1
d_81_197_2 1
d_82_83_6 62
d_82_84_6 4
d_82_86_6 6
d_82_94_6 1
d_83_84_6 43
d_83_86_6 9
d_83_87_6 1
d_83_91_6 1
d_84_85_6 2
d_84_86_6 35
d_84_87_6 5
d_84_88_6 1
d_84_90_6 1
d_84_92_6 1
d_85_86_6 1
d_86_49_11 1
d_86_50_11 1
d_86_87_6 685
d_86_87_11 0
d_86_88_6 3
d_86_88_11 0
d_86_89_6 1
d_86_90_6 1
d_86_91_6 1
d_86_95_6 1
d_87_48_11 19
d_87_49_11 7
d_87_50_11 7
d_87_88_6 93
d_87_88_11 0
d_87_89_6 4
d_87_90_6 3
d_87_91_6 8
d_87_93_6 1
d_87_94_6 1
d_88_48_1 8
d_88_48_11 0
d_88_57_1 2
d_88_89_6 21
d_88_90_6 1
d_89_90_4 54
d_89_90_6 0
d_89_91_4 0
d_89_91_6 4
d_89_92_4 0
d_89_92_6 2
d_89_194_2 4
d_89_195_2 2
d_90_91_4 95
d_90_91_6 0
d_90_92_4 0
d_90_92_6 2
d_90_94_6 1
d_90_95_6 1
d_90_104_6 1
d_90_114_6 1
d_90_277_4 1
d_90_278_4 3
d_90_279_4 1
d_90_284_4 1
d_90_285_4 1
d_91_92_4 0
d_91_92_6 355
d_91_93_4 0
d_91_93_6 1
d_92_93_4 112
d_92_93_6 0
d_92_94_6 11
d_92_95_6 3
d_92_97_6 1
d_92_277_4 6
d_92_278_4 1
d_92_279_4 2
d_93_94_6 6
d_93_94_12 0
d_93_95_6 1
d_93_95_12 0
d_93_277_4 4
d_93_279_4 1
d_94_95_6 148
d_94_95_12 0
d_94_101_6 1
d_95_96_6 36
d_95_97_6 2
d_95_98_6 1
d_95_99_6 2
d_95_104_6 1
d_96_97_6 1
d_97_98_6 13
d_97_100_6 1
d_97_102_6 1
d_97_105_6 1
d_98_99_6 9
d_98_100_6 3
d_98_101_6 1
d_98_112_6 1
d_99_100_6 2
d_99_102_6 2
d_99_103_6 1
d_99_114_6 1
d_99_118_6 1
d_100_101_6 18
d_101_102_6 16
d_102_103_6 15
d_102_104_6 2
d_102_105_6 2
d_102_108_6 1
d_103_104_6 13
d_103_105_6 1
d_103_106_6 1
d_104_105_6 30
d_105_106_6 53
d_105_107_6 5
d_105_108_6 1
d_105_110_6 1
d_105_112_6 2
d_105_117_6 1
d_106_107_6 10
d_106_108_6 1
d_106_112_6 3
d_107_108_6 7
d_108_109_6 29
d_108_110_6 1
d_108_112_6 1
d_108_113_6 5
d_108_116_6 1
d_108_118_6 1
d_109_110_6 2
d_110_111_6 4
d_110_112_6 1
d_110_113_6 1
d_110_116_6 1
d_111_112_6 2
d_112_113_6 23
d_112_114_6 2
d_112_116_6 5
d_112_117_6 2
d_112_118_6 3
d_113_114_6 57
d_113_116_6 1
d_114_115_6 19
d_114_116_6 3
d_114_120_6 1
d_115_116_6 7
d_116_117_6 20
d_117_118_6 8
d_118_119_6 40
d_118_120_6 1
d_119_120_6 5
d_121_57_1 1
d_121_125_1 7
d_121_129_1 2
d_121_131_1 6
d_121_133_1 1
d_121_135_1 1
d_121_149_1 1
d_121_156_1 1
d_121_157_1 2
d_125_57_1 1
d_125_58_1 2
d_125_129_1 8
d_125_131_1 16
d_125_132_1 6
d_125_133_1 10
d_125_135_1 1
d_125_137_1 3
d_125_138_1 1
d_125_139_1 1
d_125_148_1 1
d_125_149_1 1
d_125_151_1 1
d_125_155_1 1
d_129_131_1 31
d_129_132_1 1
d_129_133_1 3
d_131_132_1 443
d_131_133_1 37
d_131_134_1 1
d_131_135_1 2
d_131_137_1 1
d_131_138_1 1
d_131_139_1 1
d_131_156_1 1
d_132_133_1 77
d_132_135_1 2
d_132_138_1 1
d_132_139_1 1
d_132_141_1 1
d_133_134_1 209
d_133_135_1 21
d_133_137_1 1
d_133_138_1 1
d_133_139_1 2
d_133_141_1 2
d_134_135_1 10
d_135_136_1 106
d_135_137_1 8
d_135_138_1 1
d_135_139_1 2
d_135_141_1 1
d_136_137_1 8
d_137_57_1 1
d_137_138_1 114
d_137_139_1 3
d_137_153_1 1
d_138_139_1 60
d_138_141_1 1
d_138_149_1 1
d_139_57_1 1
d_139_140_1 43
d_139_141_1 17
d_140_141_1 9
d_141_48_1 7
d_141_57_1 10
d_141_58_1 4
d_141_148_1 16
d_141_149_1 5
d_141_150_1 6
d_141_151_1 2
d_141_152_1 1
d_141_153_1 3
d_141_156_1 1
d_141_157_1 2
d_148_48_1 3
d_148_57_1 11
d_148_58_1 2
d_148_149_1 21
d_148_150_1 140
d_148_151_1 22
d_148_152_1 1
d_148_153_1 17
d_148_155_1 1
d_148_156_1 8
d_148_157_1 2
d_149_48_1 5
d_149_57_1 11
d_149_58_1 4
d_149_150_1 27
d_149_151_1 18
d_149_152_1 1
d_149_153_1 12
d_149_154_1 1
d_149_156_1 1
d_149_157_1 11
d_150_151_1 159
d_150_153_1 1
d_151_57_1 2
d_151_58_1 1
d_151_152_1 52
d_151_153_1 23
d_152_57_1 2
d_152_153_1 9
d_152_157_1 1
d_153_48_1 7
d_153_57_1 10
d_153_58_1 1
d_153_88_1 8
d_153_154_1 51
d_153_155_1 1
d_153_156_1 3
d_153_157_1 5
d_154_88_1 5
d_155_57_1 0
d_155_57_3 4
d_155_58_1 2
d_155_60_3 1
d_155_156_1 60
d_155_156_3 0
d_155_157_1 5
d_155_157_3 0
d_156_57_1 6
d_156_57_3 0
d_156_58_1 1
d_156_59_3 1
d_156_62_3 1
d_156_157_1 137
d_156_157_3 0
d_157_57_1 0
d_157_57_3 505
d_157_58_1 1
d_157_59_3 5
d_157_60_3 4
d_157_65_3 1
d_158_159_1 0
d_158_159_3 665
d_158_160_1 0
d_158_160_3 18
d_158_163_1 2
d_158_164_1 1
d_158_165_1 1
d_158_167_1 1
d_159_160_1 0
d_159_160_3 437
d_159_162_1 0
d_159_162_3 1
d_159_163_1 2
d_159_166_1 1
d_159_167_1 1
d_160_161_1 0
d_160_161_3 228
d_160_162_1 8
d_160_162_3 0
d_160_163_1 29
d_160_164_1 3
d_160_165_1 8
d_160_166_1 1
d_160_167_1 1
d_160_168_1 3
d_160_237_3 10
d_161_162_1 19
d_161_162_3 0
d_161_163_1 5
d_162_163_1 15
d_162_164_1 1
d_162_167_1 1
d_162_237_3 15
d_163_164_1 11
d_163_164_3 0
d_163_165_1 98
d_163_165_3 0
d_163_166_1 16
d_163_166_3 0
d_163_167_1 13
d_163_167_3 0
d_163_168_1 2
d_163_169_1 8
d_163_239_3 4
d_163_240_3 2
d_163_241_3 2
d_163_244_3 1
d_163_247_3 1
d_163_250_3 2
d_164_166_1 0
d_164_166_3 1
d_164_167_1 0
d_164_167_3 1
d_164_169_1 1
d_165_166_1 0
d_165_166_3 355
d_165_167_1 0
d_165_167_3 8
d_165_168_1 1
d_165_169_1 3
d_165_244_3 1
d_166_167_1 0
d_166_167_3 102
d_166_168_1 3
d_167_168_1 146
d_167_169_1 17
d_167_238_3 15
d_167_239_3 2
d_167_241_3 2
d_167_243_3 1
d_167_244_3 1
d_167_246_3 2
d_168_169_1 58
d_176_177_2 0
d_176_177_4 323
d_176_178_2 0
d_176_178_4 12
d_177_78_2 1
d_177_178_2 245
d_177_178_4 0
d_177_179_2 0
d_177_179_4 1
d_177_180_2 1
d_177_181_2 1
d_177_190_2 1
d_178_77_2 1
d_178_179_2 0
d_178_179_4 1187
d_178_180_2 24
d_178_181_2 26
d_178_184_2 1
d_178_185_2 2
d_178_190_2 1
d_178_211_2 1
d_178_264_4 50
d_179_180_2 8
d_179_181_2 2
d_179_264_4 138
d_180_77_2 1
d_180_181_2 175
d_180_181_4 0
d_180_265_4 1
d_180_266_4 1
d_180_267_4 1
d_181_67_4 4
d_181_73_4 1
d_181_81_2 1
d_181_182_2 71
d_181_184_2 1
d_181_186_2 1
d_181_190_2 1
d_181_265_4 284
d_181_266_4 17
d_181_267_4 4
d_182_77_2 1
d_182_184_2 12
d_182_185_2 1
d_182_186_2 2
d_182_199_2 1
d_184_77_2 4
d_184_79_2 1
d_184_185_2 93
d_184_186_2 17
d_184_187_2 1
d_184_190_2 2
d_185_186_2 30
d_186_77_2 1
d_186_187_2 318
d_187_77_2 25
d_187_78_2 4
d_187_79_2 7
d_187_81_2 1
d_187_188_2 37
d_187_189_2 10
d_187_190_2 18
d_187_192_2 1
d_188_189_2 1
d_188_190_2 1
d_189_77_2 3
d_189_190_2 60
d_190_77_2 220
d_190_78_2 1
d_190_79_2 2
d_194_195_2 17
d_194_196_2 1
d_195_196_2 77
d_195_199_2 6
d_196_197_2 13
d_196_199_2 6
d_197_198_2 11
d_197_199_2 5
d_198_199_2 55
d_199_200_2 78
d_199_207_2 3
d_199_209_2 1
d_199_210_2 3
d_199_211_2 1
d_199_213_2 3
d_199_215_2 1
d_199_217_2 4
d_199_219_2 1
d_200_209_2 1
d_200_210_2 1
d_200_217_2 1
d_207_208_2 33
d_207_209_2 7
d_207_210_2 5
d_207_211_2 6
d_207_213_2 2
d_207_214_2 2
d_207_215_2 2
d_207_216_2 2
d_207_217_2 6
d_208_209_2 3
d_209_210_2 22
d_209_217_2 1
d_210_211_2 7
d_210_213_2 1
d_211_213_2 1
d_211_215_2 1
d_211_216_2 1
d_211_217_2 1
d_213_214_2 2
d_213_215_2 3
d_213_217_2 3
d_214_215_2 2
d_214_217_2 1
d_215_216_2 6
d_215_217_2 4
d_216_217_2 9
d_217_219_2 1
d_228_229_12 1
d_229_41_13 1
d_230_43_3 24
d_230_44_3 6
d_230_45_3 8
d_230_46_3 9
d_230_47_3 3
d_230_48_3 3
d_230_49_3 2
d_230_50_3 3
d_230_51_3 7
d_230_53_3 1
d_230_232_3 136
d_230_233_3 68
d_230_234_3 85
d_230_235_3 31
d_230_236_3 7
d_232_44_3 1
d_232_45_3 1
d_232_50_3 1
d_232_53_3 1
d_232_233_3 98
d_232_234_3 1
d_233_234_3 191
d_233_235_3 3
d_234_43_3 4
d_234_44_3 2
d_234_45_3 3
d_234_46_3 2
d_234_49_3 3
d_234_50_3 2
d_234_235_3 599
d_235_43_3 17
d_235_45_3 1
d_235_46_3 2
d_235_48_3 1
d_235_236_3 276
d_236_43_3 79
d_236_45_3 5
d_236_49_3 1
d_236_53_3 1
d_237_163_3 171
d_238_239_3 8
d_239_240_3 66
d_239_241_3 3
d_239_247_3 2
d_240_241_3 48
d_240_242_3 1
d_241_242_3 62
d_241_243_3 2
d_241_244_3 7
d_241_245_3 1
d_241_247_3 1
d_241_250_3 1
d_242_243_3 4
d_242_244_3 1
d_242_245_3 1
d_242_247_3 1
d_243_244_3 4
d_243_246_3 1
d_244_245_3 101
d_244_246_3 1
d_244_250_3 1
d_245_246_3 46
d_245_247_3 3
d_246_247_3 44
d_247_248_3 120
d_247_249_3 4
d_247_250_3 9
d_248_249_3 21
d_248_250_3 2
d_249_250_3 72
d_250_176_4 2
d_250_177_4 1
d_250_251_4 590
d_250_252_4 16
d_250_253_4 3
d_250_254_4 2
d_250_255_4 1
d_250_257_4 1
d_250_261_4 1
d_250_263_4 1
d_251_177_4 1
d_251_252_4 235
d_251_254_4 2
d_252_253_4 305
d_252_254_4 14
d_252_255_4 2
d_253_254_4 90
d_253_257_4 1
d_254_255_4 382
d_254_259_4 1
d_255_176_4 2
d_255_256_4 143
d_255_257_4 29
d_255_258_4 11
d_255_259_4 2
d_255_260_4 3
d_256_257_4 9
d_257_178_4 1
d_257_258_4 184
d_257_259_4 5
d_257_260_4 1
d_257_261_4 1
d_258_176_4 1
d_258_177_4 2
d_258_178_4 1
d_258_179_4 1
d_258_259_4 208
d_258_260_4 6
d_258_261_4 2
d_259_177_4 2
d_259_178_4 1
d_259_260_4 284
d_259_261_4 3
d_259_263_4 1
d_260_176_4 4
d_260_177_4 2
d_260_178_4 3
d_260_179_4 1
d_260_261_4 189
d_260_262_4 1
d_260_263_4 3
d_261_176_4 6
d_261_177_4 4
d_261_178_4 7
d_261_179_4 1
d_261_262_4 117
d_261_263_4 21
d_261_264_4 4
d_262_263_4 14
d_263_176_4 230
d_263_177_4 4
d_263_178_4 7
d_263_179_4 2
d_263_264_4 2
d_264_67_4 18
d_264_73_4 3
d_264_74_4 2
d_264_180_4 274
d_264_181_4 40
d_264_265_4 6
d_264_266_4 17
d_264_267_4 9
d_264_268_4 1
d_264_269_4 2
d_264_270_4 4
d_264_271_4 2
d_264_273_4 1
d_264_274_4 4
d_264_275_4 1
d_264_276_4 1
d_265_67_4 1
d_265_266_4 129
d_265_267_4 5
d_265_270_4 1
d_266_67_4 35
d_266_73_4 9
d_266_74_4 3
d_266_267_4 300
d_266_268_4 2
d_266_269_4 4
d_266_270_4 7
d_266_273_4 1
d_266_274_4 3
d_266_275_4 4
d_266_276_4 2
d_267_67_4 341
d_267_73_4 5
d_267_74_4 2
d_267_270_4 1
d_268_269_4 15
d_268_270_4 6
d_268_271_4 1
d_268_273_4 1
d_268_274_4 2
d_269_270_4 305
d_269_271_4 1
d_270_271_4 864
d_270_273_4 3
d_270_275_4 1
d_270_276_4 1
d_270_284_4 1
d_271_78_4 4
d_271_79_4 9
d_271_80_4 2
d_271_81_4 4
d_271_91_4 1
d_271_272_4 90
d_271_273_4 71
d_271_274_4 41
d_271_275_4 21
d_271_276_4 10
d_271_279_4 1
d_272_273_4 2
d_273_78_4 1
d_273_79_4 2
d_273_274_4 209
d_273_275_4 6
d_273_276_4 3
d_274_78_4 1
d_274_79_4 7
d_274_80_4 1
d_274_275_4 353
d_274_276_4 9
d_275_78_4 5
d_275_79_4 5
d_275_91_4 1
d_275_276_4 221
d_276_78_4 441
d_276_79_4 8
d_276_91_4 1
d_277_278_4 38
d_277_279_4 7
d_277_284_4 1
d_278_279_4 4
d_279_280_4 22
d_279_282_4 3
d_279_284_4 2
d_279_285_4 5
d_282_283_4 9
d_282_284_4 2
d_283_284_4 1
d_284_285_4 16
f_1 9
g_1 9
f_2 13
g_2 13
f_3 11
g_3 11
f_4 17
g_4 17
f_5 7
g_5 7
f_6 14
g_6 14
f_7 1
g_7 1
f_8 1
g_8 1
f_9 1
g_9 1
f_10 1
g_10 1
f_11 9
g_11 9
f_12 1
g_12 1
f_13 1
g_13 1
